benchmarks_vrp/CMT3/tsp_classic/CMT3_0.vrp
NAME: CMT3_0
TYPE: CVRP
COMMENT: 826.14 - Cluster Nr.0
DIMENSION: 13
CAPACITY: 200
EDGE_WEIGHT_TYPE: EUC_2D
NODE_COORD_TYPE: TWOD_COORDS
NODE_COORD_SECTION: 
8 18 24
2 12 24
1 20 20
7 11 14
11 5 5
12 22 22
3 15 10
6 18 18
13 19 21
10 15 19
4 10 20
5 16 22
9 35 35
DEPOT_SECTION: 
9
-1
DEMAND_SECTION: 
7 18
12 2
5 41
6 17
4 19
9 0
8 22
11 16
10 1
3 20
1 8
13 10
2 13
EOF
