benchmarks_vrp/CMT3/tsp_classic/CMT3_0.tour
NAME: CMT3_0 solution
TYPE: TOUR
TOUR_SECTION:
9 8 5 2 4 7 11 3 10 6 13 1 12 -1
-1
EOF